TIP.Original.Linear/tip2015_weird_nat_mul3_rot.smt2
(set-logic HORN)
(declare-datatypes ((Nat_363 0)) (((zero_82 ) (succ_80 (p_226 Nat_363)))))
(declare-fun diseqNat_363 (Nat_363 Nat_363) Bool)
(declare-fun p_227 (Nat_363 Nat_363) Bool)
(declare-fun iszero_80 (Nat_363) Bool)
(declare-fun issucc_80 (Nat_363) Bool)
(assert (forall ((x_34201 Nat_363))
	(p_227 x_34201 (succ_80 x_34201))))
(assert (iszero_80 zero_82))
(assert (forall ((x_34203 Nat_363))
	(issucc_80 (succ_80 x_34203))))
(assert (forall ((x_34204 Nat_363))
	(diseqNat_363 zero_82 (succ_80 x_34204))))
(assert (forall ((x_34205 Nat_363))
	(diseqNat_363 (succ_80 x_34205) zero_82)))
(assert (forall ((x_34206 Nat_363) (x_34207 Nat_363))
	(=> (diseqNat_363 x_34206 x_34207)
	    (diseqNat_363 (succ_80 x_34206) (succ_80 x_34207)))))
(declare-fun plus_73 (Nat_363 Nat_363 Nat_363) Bool)
(assert (forall ((x_34105 Nat_363) (z_1232 Nat_363) (y_1329 Nat_363))
	(=> (plus_73 x_34105 z_1232 y_1329)
	    (plus_73 (succ_80 x_34105) (succ_80 z_1232) y_1329))))
(assert (forall ((x_34106 Nat_363))
	(plus_73 x_34106 zero_82 x_34106)))
(declare-fun add_225 (Nat_363 Nat_363 Nat_363 Nat_363) Bool)
(assert (forall ((x_34107 Nat_363) (x_34108 Nat_363) (x_34093 Nat_363) (y_1330 Nat_363) (z_1233 Nat_363))
	(=>	(and (add_225 x_34108 x_34093 y_1330 z_1233)
			(plus_73 x_34107 (succ_80 zero_82) x_34108))
		(add_225 x_34107 (succ_80 x_34093) y_1330 z_1233))))
(assert (forall ((x_34110 Nat_363) (x_34111 Nat_363) (x_34094 Nat_363) (z_1233 Nat_363))
	(=>	(and (add_225 x_34111 zero_82 x_34094 z_1233)
			(plus_73 x_34110 (succ_80 zero_82) x_34111))
		(add_225 x_34110 zero_82 (succ_80 x_34094) z_1233))))
(assert (forall ((x_34113 Nat_363))
	(add_225 x_34113 zero_82 zero_82 x_34113)))
(declare-fun mul_5 (Nat_363 Nat_363 Nat_363 Nat_363) Bool)
(assert (forall ((x_34114 Nat_363) (x_34115 Nat_363) (x_34116 Nat_363) (x_34117 Nat_363) (x_34118 Nat_363) (x_34119 Nat_363) (x_34120 Nat_363) (fail_15 Nat_363))
	(=>	(and (mul_5 x_34114 zero_82 zero_82 zero_82)
			(mul_5 x_34115 (succ_80 zero_82) zero_82 zero_82)
			(mul_5 x_34116 zero_82 (succ_80 zero_82) zero_82)
			(mul_5 x_34117 zero_82 zero_82 (succ_80 zero_82))
			(add_225 x_34118 x_34115 x_34116 x_34117)
			(add_225 x_34119 zero_82 zero_82 zero_82)
			(add_225 x_34120 x_34114 x_34118 x_34119)
			(plus_73 fail_15 (succ_80 zero_82) x_34120))
		(mul_5 (succ_80 zero_82) (succ_80 zero_82) (succ_80 zero_82) (succ_80 zero_82)))))
(assert (forall ((x_34123 Nat_363) (x_34124 Nat_363) (x_34125 Nat_363) (x_34126 Nat_363) (x_34127 Nat_363) (x_34128 Nat_363) (x_34129 Nat_363) (fail_15 Nat_363) (x_34098 Nat_363) (x_34097 Nat_363) (x_34096 Nat_363))
	(=>	(and (diseqNat_363 x_34096 zero_82)
			(mul_5 x_34123 x_34096 x_34097 x_34098)
			(mul_5 x_34124 (succ_80 zero_82) x_34097 x_34098)
			(mul_5 x_34125 x_34096 (succ_80 zero_82) x_34098)
			(mul_5 x_34126 x_34096 x_34097 (succ_80 zero_82))
			(add_225 x_34127 x_34124 x_34125 x_34126)
			(add_225 x_34128 x_34096 x_34097 x_34098)
			(add_225 x_34129 x_34123 x_34127 x_34128)
			(plus_73 fail_15 (succ_80 zero_82) x_34129))
		(mul_5 fail_15 (succ_80 x_34096) (succ_80 x_34097) (succ_80 x_34098)))))
(assert (forall ((x_34132 Nat_363) (x_34133 Nat_363) (x_34134 Nat_363) (x_34135 Nat_363) (x_34136 Nat_363) (x_34137 Nat_363) (x_34138 Nat_363) (fail_15 Nat_363) (x_34098 Nat_363) (x_34097 Nat_363))
	(=>	(and (diseqNat_363 x_34097 zero_82)
			(mul_5 x_34132 zero_82 x_34097 x_34098)
			(mul_5 x_34133 (succ_80 zero_82) x_34097 x_34098)
			(mul_5 x_34134 zero_82 (succ_80 zero_82) x_34098)
			(mul_5 x_34135 zero_82 x_34097 (succ_80 zero_82))
			(add_225 x_34136 x_34133 x_34134 x_34135)
			(add_225 x_34137 zero_82 x_34097 x_34098)
			(add_225 x_34138 x_34132 x_34136 x_34137)
			(plus_73 fail_15 (succ_80 zero_82) x_34138))
		(mul_5 fail_15 (succ_80 zero_82) (succ_80 x_34097) (succ_80 x_34098)))))
(assert (forall ((x_34141 Nat_363) (x_34142 Nat_363) (x_34143 Nat_363) (x_34144 Nat_363) (x_34145 Nat_363) (x_34146 Nat_363) (x_34147 Nat_363) (fail_15 Nat_363) (x_34098 Nat_363) (x_34097 Nat_363) (x_34096 Nat_363))
	(=>	(and (diseqNat_363 x_34096 zero_82)
			(mul_5 x_34141 x_34096 x_34097 x_34098)
			(mul_5 x_34142 (succ_80 zero_82) x_34097 x_34098)
			(mul_5 x_34143 x_34096 (succ_80 zero_82) x_34098)
			(mul_5 x_34144 x_34096 x_34097 (succ_80 zero_82))
			(add_225 x_34145 x_34142 x_34143 x_34144)
			(add_225 x_34146 x_34096 x_34097 x_34098)
			(add_225 x_34147 x_34141 x_34145 x_34146)
			(plus_73 fail_15 (succ_80 zero_82) x_34147))
		(mul_5 fail_15 (succ_80 x_34096) (succ_80 x_34097) (succ_80 x_34098)))))
(assert (forall ((x_34150 Nat_363) (x_34151 Nat_363) (x_34152 Nat_363) (x_34153 Nat_363) (x_34154 Nat_363) (x_34155 Nat_363) (x_34156 Nat_363) (fail_15 Nat_363) (x_34098 Nat_363))
	(=>	(and (diseqNat_363 x_34098 zero_82)
			(mul_5 x_34150 zero_82 zero_82 x_34098)
			(mul_5 x_34151 (succ_80 zero_82) zero_82 x_34098)
			(mul_5 x_34152 zero_82 (succ_80 zero_82) x_34098)
			(mul_5 x_34153 zero_82 zero_82 (succ_80 zero_82))
			(add_225 x_34154 x_34151 x_34152 x_34153)
			(add_225 x_34155 zero_82 zero_82 x_34098)
			(add_225 x_34156 x_34150 x_34154 x_34155)
			(plus_73 fail_15 (succ_80 zero_82) x_34156))
		(mul_5 fail_15 (succ_80 zero_82) (succ_80 zero_82) (succ_80 x_34098)))))
(assert (forall ((x_34159 Nat_363) (x_34160 Nat_363) (x_34161 Nat_363) (x_34162 Nat_363) (x_34163 Nat_363) (x_34164 Nat_363) (x_34165 Nat_363) (fail_15 Nat_363) (x_34098 Nat_363) (x_34097 Nat_363) (x_34096 Nat_363))
	(=>	(and (diseqNat_363 x_34096 zero_82)
			(mul_5 x_34159 x_34096 x_34097 x_34098)
			(mul_5 x_34160 (succ_80 zero_82) x_34097 x_34098)
			(mul_5 x_34161 x_34096 (succ_80 zero_82) x_34098)
			(mul_5 x_34162 x_34096 x_34097 (succ_80 zero_82))
			(add_225 x_34163 x_34160 x_34161 x_34162)
			(add_225 x_34164 x_34096 x_34097 x_34098)
			(add_225 x_34165 x_34159 x_34163 x_34164)
			(plus_73 fail_15 (succ_80 zero_82) x_34165))
		(mul_5 fail_15 (succ_80 x_34096) (succ_80 x_34097) (succ_80 x_34098)))))
(assert (forall ((x_34168 Nat_363) (x_34169 Nat_363) (x_34170 Nat_363) (x_34171 Nat_363) (x_34172 Nat_363) (x_34173 Nat_363) (x_34174 Nat_363) (fail_15 Nat_363) (x_34098 Nat_363) (x_34097 Nat_363))
	(=>	(and (diseqNat_363 x_34097 zero_82)
			(mul_5 x_34168 zero_82 x_34097 x_34098)
			(mul_5 x_34169 (succ_80 zero_82) x_34097 x_34098)
			(mul_5 x_34170 zero_82 (succ_80 zero_82) x_34098)
			(mul_5 x_34171 zero_82 x_34097 (succ_80 zero_82))
			(add_225 x_34172 x_34169 x_34170 x_34171)
			(add_225 x_34173 zero_82 x_34097 x_34098)
			(add_225 x_34174 x_34168 x_34172 x_34173)
			(plus_73 fail_15 (succ_80 zero_82) x_34174))
		(mul_5 fail_15 (succ_80 zero_82) (succ_80 x_34097) (succ_80 x_34098)))))
(assert (forall ((x_34177 Nat_363) (x_34178 Nat_363) (x_34179 Nat_363) (x_34180 Nat_363) (x_34181 Nat_363) (x_34182 Nat_363) (x_34183 Nat_363) (fail_15 Nat_363) (x_34098 Nat_363) (x_34097 Nat_363) (x_34096 Nat_363))
	(=>	(and (diseqNat_363 x_34096 zero_82)
			(mul_5 x_34177 x_34096 x_34097 x_34098)
			(mul_5 x_34178 (succ_80 zero_82) x_34097 x_34098)
			(mul_5 x_34179 x_34096 (succ_80 zero_82) x_34098)
			(mul_5 x_34180 x_34096 x_34097 (succ_80 zero_82))
			(add_225 x_34181 x_34178 x_34179 x_34180)
			(add_225 x_34182 x_34096 x_34097 x_34098)
			(add_225 x_34183 x_34177 x_34181 x_34182)
			(plus_73 fail_15 (succ_80 zero_82) x_34183))
		(mul_5 fail_15 (succ_80 x_34096) (succ_80 x_34097) (succ_80 x_34098)))))
(assert (forall ((x_34097 Nat_363) (x_34096 Nat_363))
	(mul_5 zero_82 (succ_80 x_34096) (succ_80 x_34097) zero_82)))
(assert (forall ((x_34096 Nat_363) (z_1234 Nat_363))
	(mul_5 zero_82 (succ_80 x_34096) zero_82 z_1234)))
(assert (forall ((y_1331 Nat_363) (z_1234 Nat_363))
	(mul_5 zero_82 zero_82 y_1331 z_1234)))
(assert (forall ((x_34189 Nat_363) (x_34190 Nat_363) (x_34099 Nat_363) (y_1332 Nat_363) (z_1235 Nat_363))
	(=>	(and true
			(diseqNat_363 x_34189 x_34190)
			(mul_5 x_34189 x_34099 y_1332 z_1235)
			(mul_5 x_34190 y_1332 x_34099 z_1235))
		false)))
(assert (forall ((x_34191 Nat_363) (x_34192 Nat_363) (x_34193 Nat_363) (x_34194 Nat_363) (x_34100 Nat_363) (y_1333 Nat_363) (z_1236 Nat_363))
	(=>	(and true
			(diseqNat_363 x_34192 x_34194)
			(plus_73 x_34191 y_1333 z_1236)
			(plus_73 x_34192 x_34100 x_34191)
			(plus_73 x_34193 x_34100 y_1333)
			(plus_73 x_34194 x_34193 z_1236))
		false)))
(assert (forall ((x_34195 Nat_363) (x_34196 Nat_363) (x_34101 Nat_363) (y_1334 Nat_363))
	(=>	(and true
			(diseqNat_363 x_34195 x_34196)
			(plus_73 x_34195 x_34101 y_1334)
			(plus_73 x_34196 y_1334 x_34101))
		false)))
(assert (forall ((x_34197 Nat_363) (x_34102 Nat_363))
	(=>	(and true
			(diseqNat_363 x_34197 x_34102)
			(plus_73 x_34197 x_34102 zero_82))
		false)))
(assert (forall ((x_34198 Nat_363) (x_34103 Nat_363))
	(=>	(and true
			(diseqNat_363 x_34198 x_34103)
			(plus_73 x_34198 zero_82 x_34103))
		false)))
(check-sat)
